NAME          DCAP_3_4_2_500_SS199
ROWS
 N  OBJ
 L  CON1
 L  CON2
 L  CON3
 L  CON4
 L  CON5
 L  CON6
 L  CON7
 L  CON8
 L  CON9
 L  CON10
 L  CON11
 L  CON12
 E  CON13
 E  CON14
 E  CON15
 E  CON16
 E  CON17
 E  CON18
 E  CON19
 E  CON20
COLUMNS
    x[1,1]    OBJ       6.180167      CON1      1.000000    
    x[1,1]    CON7      -1.000000     CON8      -1.000000   
    x[1,2]    OBJ       5.039546      CON2      1.000000    
    x[1,2]    CON8      -1.000000   
    x[2,1]    OBJ       6.732585      CON3      1.000000    
    x[2,1]    CON9      -1.000000     CON10     -1.000000   
    x[2,2]    OBJ       7.443064      CON4      1.000000    
    x[2,2]    CON10     -1.000000   
    x[3,1]    OBJ       6.563535      CON5      1.000000    
    x[3,1]    CON11     -1.000000     CON12     -1.000000   
    x[3,2]    OBJ       6.054841      CON6      1.000000    
    x[3,2]    CON12     -1.000000   
    MARKER    'MARKER'                'INTORG'
    u[1,1]    OBJ       48.076654     CON1      -1.000000   
    u[1,2]    OBJ       49.466655     CON2      -1.000000   
    u[2,1]    OBJ       49.996186     CON3      -1.000000   
    u[2,2]    OBJ       32.230043     CON4      -1.000000   
    u[3,1]    OBJ       20.066487     CON5      -1.000000   
    u[3,2]    OBJ       27.484319     CON6      -1.000000   
    y[1,1,1]  OBJ       5.928497      CON7      0.509560    
    y[1,1,1]  CON13     1.000000    
    y[1,1,2]  OBJ       5.821745      CON8      1.082579    
    y[1,1,2]  CON14     1.000000    
    y[1,2,1]  OBJ       9.353823      CON7      0.546646    
    y[1,2,1]  CON15     1.000000    
    y[1,2,2]  OBJ       6.601679      CON8      1.495556    
    y[1,2,2]  CON16     1.000000    
    y[1,3,1]  OBJ       6.368887      CON7      0.703182    
    y[1,3,1]  CON17     1.000000    
    y[1,3,2]  OBJ       5.238042      CON8      0.683704    
    y[1,3,2]  CON18     1.000000    
    y[1,4,1]  OBJ       9.104507      CON7      0.944069    
    y[1,4,1]  CON19     1.000000    
    y[1,4,2]  OBJ       8.433261      CON8      1.302202    
    y[1,4,2]  CON20     1.000000    
    y[2,1,1]  OBJ       6.430983      CON9      0.509560    
    y[2,1,1]  CON13     1.000000    
    y[2,1,2]  OBJ       9.514641      CON10     1.082579    
    y[2,1,2]  CON14     1.000000    
    y[2,2,1]  OBJ       9.189699      CON9      0.546646    
    y[2,2,1]  CON15     1.000000    
    y[2,2,2]  OBJ       8.325256      CON10     1.495556    
    y[2,2,2]  CON16     1.000000    
    y[2,3,1]  OBJ       8.380724      CON9      0.703182    
    y[2,3,1]  CON17     1.000000    
    y[2,3,2]  OBJ       6.229824      CON10     0.683704    
    y[2,3,2]  CON18     1.000000    
    y[2,4,1]  OBJ       7.367292      CON9      0.944069    
    y[2,4,1]  CON19     1.000000    
    y[2,4,2]  OBJ       8.586672      CON10     1.302202    
    y[2,4,2]  CON20     1.000000    
    y[3,1,1]  OBJ       7.630743      CON11     0.509560    
    y[3,1,1]  CON13     1.000000    
    y[3,1,2]  OBJ       6.873369      CON12     1.082579    
    y[3,1,2]  CON14     1.000000    
    y[3,2,1]  OBJ       9.511510      CON11     0.546646    
    y[3,2,1]  CON15     1.000000    
    y[3,2,2]  OBJ       9.665635      CON12     1.495556    
    y[3,2,2]  CON16     1.000000    
    y[3,3,1]  OBJ       9.008644      CON11     0.703182    
    y[3,3,1]  CON17     1.000000    
    y[3,3,2]  OBJ       5.423534      CON12     0.683704    
    y[3,3,2]  CON18     1.000000    
    y[3,4,1]  OBJ       7.252880      CON11     0.944069    
    y[3,4,1]  CON19     1.000000    
    y[3,4,2]  OBJ       9.076514      CON12     1.302202    
    y[3,4,2]  CON20     1.000000    
    z[1,1]    OBJ       852.103590    CON13     1.000000    
    z[1,2]    OBJ       648.755978    CON14     1.000000    
    z[2,1]    OBJ       591.959738    CON15     1.000000    
    z[2,2]    OBJ       953.066089    CON16     1.000000    
    z[3,1]    OBJ       689.491831    CON17     1.000000    
    z[3,2]    OBJ       570.422389    CON18     1.000000    
    z[4,1]    OBJ       749.599387    CON19     1.000000    
    z[4,2]    OBJ       517.814047    CON20     1.000000    
    MARKER    'MARKER'                 'INTEND'
RHS
    RHS       CON1      -0.000000     CON2      -0.000000   
    RHS       CON3      -0.000000     CON4      -0.000000   
    RHS       CON5      -0.000000     CON6      -0.000000   
    RHS       CON7      -0.000000     CON8      -0.000000   
    RHS       CON9      -0.000000     CON10     -0.000000   
    RHS       CON11     -0.000000     CON12     -0.000000   
    RHS       CON13     1.000000      CON14     1.000000    
    RHS       CON15     1.000000      CON16     1.000000    
    RHS       CON17     1.000000      CON18     1.000000    
    RHS       CON19     1.000000      CON20     1.000000    
BOUNDS
 BV BOUND     u[1,1]  
 BV BOUND     u[1,2]  
 BV BOUND     u[2,1]  
 BV BOUND     u[2,2]  
 BV BOUND     u[3,1]  
 BV BOUND     u[3,2]  
 BV BOUND     y[1,1,1]
 BV BOUND     y[1,1,2]
 BV BOUND     y[1,2,1]
 BV BOUND     y[1,2,2]
 BV BOUND     y[1,3,1]
 BV BOUND     y[1,3,2]
 BV BOUND     y[1,4,1]
 BV BOUND     y[1,4,2]
 BV BOUND     y[2,1,1]
 BV BOUND     y[2,1,2]
 BV BOUND     y[2,2,1]
 BV BOUND     y[2,2,2]
 BV BOUND     y[2,3,1]
 BV BOUND     y[2,3,2]
 BV BOUND     y[2,4,1]
 BV BOUND     y[2,4,2]
 BV BOUND     y[3,1,1]
 BV BOUND     y[3,1,2]
 BV BOUND     y[3,2,1]
 BV BOUND     y[3,2,2]
 BV BOUND     y[3,3,1]
 BV BOUND     y[3,3,2]
 BV BOUND     y[3,4,1]
 BV BOUND     y[3,4,2]
 BV BOUND     z[1,1]  
 BV BOUND     z[1,2]  
 BV BOUND     z[2,1]  
 BV BOUND     z[2,2]  
 BV BOUND     z[3,1]  
 BV BOUND     z[3,2]  
 BV BOUND     z[4,1]  
 BV BOUND     z[4,2]  
ENDATA
